NAME : ct_5_n_3_k10_t_95
COMMENT : (ct_5_n_3_k10_t_95, Min no of trucks: 3, Optimal value: 804.873964309609, Split: Yes)
TYPE : SDVRP
DIMENSION : 6
EDGE_WEIGHT_TYPE : EUC_2D
CAPACITY : 10
NODE_COORD_SECTION
1 100 100
2 116 147
3 162 21
4 30 50
5 49 136
6 135 32
DEMAND_SECTION
1 0
2 6.2
3 7.7
4 4.7
5 4.2
6 5.7
DEPOT_SECTION
 1
EOF